NAME : in_house_9_4
TYPE : TSP
DIMENSION : 9
EDGE_WEIGHT_TYPE : EXPLICIT
EDGE_WEIGHT_FORMAT : UPPER_ROW
COMMENT : INVERSION_SHIFT=3
EDGE_WEIGHT_SECTION
18
22
70
81
59
79
66
41
19
71
32
55
51
60
10
12
36
34
16
3
4
28
59
47
49
69
58
41
73
34
32
27
52
12
71
46
